
Gurobi 6.0.0 (linux64) logging started Tue Oct  6 09:34:52 2015


Gurobi 6.0.0 (linux64) logging started Tue Oct  6 09:35:36 2015


Gurobi 6.0.0 (linux64) logging started Tue Oct  6 09:42:50 2015


Gurobi 6.0.0 (linux64) logging started Tue Oct  6 09:43:33 2015


Gurobi 6.0.0 (linux64) logging started Tue Oct  6 09:44:24 2015


Gurobi 6.0.0 (linux64) logging started Tue Oct  6 09:45:46 2015


Gurobi 6.0.0 (linux64) logging started Tue Oct  6 09:47:12 2015


Gurobi 6.0.0 (linux64) logging started Tue Oct  6 09:50:24 2015


Gurobi 6.0.0 (linux64) logging started Tue Oct  6 09:58:19 2015


Gurobi 6.0.0 (linux64) logging started Tue Oct  6 09:59:54 2015

